p cnf 221 632
c t mc
1 2 -3 0
-1 -2 -3 0
1 -2 3 0
-1 2 3 0
6 -5 0
6 -4 0
5 4 -6 0
7 8 -9 0
-7 -8 -9 0
7 -8 9 0
-7 8 9 0
6 -9 -10 0
-6 9 -10 0
6 9 10 0
-6 -9 10 0
13 11 0
13 -12 0
-11 12 -13 0
-10 -13 -14 0
10 13 -14 0
-10 13 14 0
10 -13 14 0
16 12 0
16 -15 0
-12 15 -16 0
-19 17 0
-19 18 0
-17 -18 19 0
-21 -19 0
-21 20 0
19 -20 21 0
22 -16 0
22 -21 0
16 21 -22 0
-14 -22 -23 0
14 22 -23 0
-14 22 23 0
14 -22 23 0
4 -23 -24 0
-4 23 -24 0
4 23 24 0
-4 -23 24 0
17 2 -25 0
-17 -2 -25 0
17 -2 25 0
-17 2 25 0
25 -26 -27 0
-25 26 -27 0
25 26 27 0
-25 -26 27 0
29 -27 0
29 28 0
27 -28 -29 0
20 -29 -30 0
-20 29 -30 0
20 29 30 0
-20 -29 30 0
-24 30 -31 0
24 -30 -31 0
-24 -30 31 0
24 30 31 0
12 -10 -32 0
-12 10 -32 0
12 10 32 0
-12 -10 32 0
-33 -27 0
-33 -28 0
27 28 33 0
-34 -35 -36 0
34 35 -36 0
-34 35 36 0
34 -35 36 0
4 -36 -37 0
-4 36 -37 0
4 36 37 0
-4 -36 37 0
-38 -33 0
-38 -37 0
33 37 38 0
-32 -38 -39 0
32 38 -39 0
-32 38 39 0
32 -38 39 0
40 31 0
40 39 0
-31 -39 -40 0
-43 41 0
-43 -42 0
-41 42 43 0
44 -20 0
44 43 0
20 -43 -44 0
-45 -33 0
-45 -44 0
33 44 45 0
-46 4 -47 0
46 -4 -47 0
-46 -4 47 0
46 4 47 0
-11 -20 -48 0
11 20 -48 0
-11 20 48 0
11 -20 48 0
47 48 -49 0
-47 -48 -49 0
47 -48 49 0
-47 48 49 0
45 49 -50 0
-45 -49 -50 0
45 -49 50 0
-45 49 50 0
40 -50 -51 0
-40 50 -51 0
40 50 51 0
-40 -50 51 0
3 -51 -52 0
-3 51 -52 0
3 51 52 0
-3 -51 52 0
-53 -2 0
-53 12 0
2 -12 53 0
55 -53 0
55 -54 0
53 54 -55 0
-57 -55 0
-57 56 0
55 -56 57 0
57 -35 -58 0
-57 35 -58 0
57 35 58 0
-57 -35 58 0
59 52 0
59 -58 0
-52 58 -59 0
60 -9 0
60 -34 0
9 34 -60 0
61 -60 0
61 17 0
60 -17 -61 0
-61 62 -63 0
61 -62 -63 0
-61 -62 63 0
61 62 63 0
47 4 -64 0
-47 -4 -64 0
47 -4 64 0
-47 4 64 0
65 -63 0
65 64 0
63 -64 -65 0
-67 65 0
-67 -66 0
-65 66 67 0
-68 59 0
-68 -67 0
-59 67 68 0
69 -6 0
69 5 0
6 -5 -69 0
-70 4 0
-70 69 0
-4 -69 70 0
2 -15 -71 0
-2 15 -71 0
2 15 71 0
-2 -15 71 0
-72 54 0
-72 29 0
-54 -29 72 0
-71 -72 -73 0
71 72 -73 0
-71 72 73 0
71 -72 73 0
70 73 -74 0
-70 -73 -74 0
70 -73 74 0
-70 73 74 0
-75 68 0
-75 74 0
-68 -74 75 0
76 44 0
76 -44 0
77 -42 0
77 76 0
42 -76 -77 0
10 -77 -78 0
-10 77 -78 0
10 77 78 0
-10 -77 78 0
-80 -79 0
-80 8 0
79 -8 80 0
-82 80 0
-82 -81 0
-80 81 82 0
-83 62 -84 0
83 -62 -84 0
-83 -62 84 0
83 62 84 0
21 -84 -85 0
-21 84 -85 0
21 84 85 0
-21 -84 85 0
-86 -15 0
-86 83 0
15 -83 86 0
28 -86 -87 0
-28 86 -87 0
28 86 87 0
-28 -86 87 0
-85 87 -88 0
85 -87 -88 0
-85 -87 88 0
85 87 88 0
90 89 0
90 71 0
-89 -71 -90 0
76 -90 -91 0
-76 90 -91 0
76 90 91 0
-76 -90 91 0
-92 88 0
-92 -91 0
-88 91 92 0
-93 7 0
-93 -35 0
-7 35 93 0
-19 -93 -94 0
19 93 -94 0
-19 93 94 0
19 -93 94 0
-94 -54 -95 0
94 54 -95 0
-94 54 95 0
94 -54 95 0
-96 92 0
-96 -95 0
-92 95 96 0
97 -82 0
97 96 0
82 -96 -97 0
78 97 -98 0
-78 -97 -98 0
78 -97 98 0
-78 97 98 0
99 36 0
99 -35 0
-36 35 -99 0
-100 90 0
-100 99 0
-90 -99 100 0
101 81 0
101 100 0
-81 -100 -101 0
102 -101 0
102 57 0
101 -57 -102 0
-66 80 -103 0
66 -80 -103 0
-66 -80 103 0
66 80 103 0
-104 41 0
-104 -103 0
-41 103 104 0
105 -34 0
105 21 0
34 -21 -105 0
-106 57 0
-106 -56 0
-57 56 106 0
-105 -106 -107 0
105 106 -107 0
-105 106 107 0
105 -106 107 0
-108 104 0
-108 -107 0
-104 107 108 0
110 -2 0
110 -109 0
2 109 -110 0
111 -54 0
111 46 0
54 -46 -111 0
-113 -111 0
-113 -112 0
111 112 113 0
114 110 0
114 -113 0
-110 113 -114 0
-54 66 -115 0
54 -66 -115 0
-54 -66 115 0
54 66 115 0
-117 -115 0
-117 116 0
115 -116 117 0
118 114 0
118 -117 0
-114 117 -118 0
119 110 0
119 118 0
-110 -118 -119 0
-120 -90 0
-120 110 0
90 -110 120 0
121 120 0
121 -44 0
-120 44 -121 0
-122 119 0
-122 -121 0
-119 121 122 0
123 -108 0
123 -122 0
108 122 -123 0
-124 102 0
-124 -123 0
-102 123 124 0
33 -113 -125 0
-33 113 -125 0
33 113 125 0
-33 -113 125 0
110 -12 -126 0
-110 12 -126 0
110 12 126 0
-110 -12 126 0
127 125 0
127 126 0
-125 -126 -127 0
-129 -6 0
-129 128 0
6 -128 129 0
93 -129 -130 0
-93 129 -130 0
93 129 130 0
-93 -129 130 0
-131 -127 0
-131 -130 0
127 130 131 0
-132 36 0
-132 -4 0
-36 4 132 0
133 131 0
133 -132 0
-131 132 -133 0
-135 -134 0
-135 116 0
134 -116 135 0
136 77 0
136 -135 0
-77 135 -136 0
-137 60 0
-137 89 0
-60 -89 137 0
-136 -137 -138 0
136 137 -138 0
-136 137 138 0
136 -137 138 0
-139 77 0
-139 65 0
-77 -65 139 0
-140 -138 0
-140 139 0
138 -139 140 0
-141 -133 0
-141 140 0
133 -140 141 0
-46 -90 -142 0
46 90 -142 0
-46 90 142 0
46 -90 142 0
143 128 0
143 -99 0
-128 99 -143 0
-144 -142 0
-144 143 0
142 -143 144 0
-141 -144 -145 0
141 144 -145 0
-141 144 145 0
141 -144 145 0
-146 -63 0
-146 -83 0
63 83 146 0
-109 -146 -147 0
109 146 -147 0
-109 146 147 0
109 -146 147 0
148 46 0
148 -89 0
-46 89 -148 0
19 54 -149 0
-19 -54 -149 0
19 -54 149 0
-19 54 149 0
-150 -149 0
-150 116 0
149 -116 150 0
151 19 0
151 53 0
-19 -53 -151 0
-152 86 0
-152 -151 0
-86 151 152 0
-153 -150 0
-153 152 0
150 -152 153 0
148 153 -154 0
-148 -153 -154 0
148 -153 154 0
-148 153 154 0
-156 4 0
-156 -155 0
-4 155 156 0
154 -156 -157 0
-154 156 -157 0
154 156 157 0
-154 -156 157 0
-158 -147 0
-158 157 0
147 -157 158 0
-159 145 0
-159 158 0
-145 -158 159 0
124 159 -160 0
-124 -159 -160 0
124 -159 160 0
-124 159 160 0
161 -98 0
161 160 0
98 -160 -161 0
162 75 0
162 -161 0
-75 161 -162 0
-41 163 -164 0
41 -163 -164 0
-41 -163 164 0
41 163 164 0
164 62 -165 0
-164 -62 -165 0
164 -62 165 0
-164 62 165 0
-54 7 -166 0
54 -7 -166 0
-54 -7 166 0
54 7 166 0
-166 41 -167 0
166 -41 -167 0
-166 -41 167 0
166 41 167 0
165 167 -168 0
-165 -167 -168 0
165 -167 168 0
-165 167 168 0
169 105 0
169 19 0
-105 -19 -169 0
-151 53 -170 0
151 -53 -170 0
-151 -53 170 0
151 53 170 0
170 -99 -171 0
-170 99 -171 0
170 99 171 0
-170 -99 171 0
172 35 0
172 -77 0
-35 77 -172 0
173 -12 0
173 33 0
12 -33 -173 0
-174 -172 0
-174 173 0
172 -173 174 0
171 174 -175 0
-171 -174 -175 0
171 -174 175 0
-171 174 175 0
-176 169 0
-176 175 0
-169 -175 176 0
-168 -176 -177 0
168 176 -177 0
-168 176 177 0
168 -176 177 0
178 -105 0
178 -44 0
105 44 -178 0
-179 -28 0
-179 -178 0
28 178 179 0
-180 -155 0
-180 60 0
155 -60 180 0
181 -180 0
181 35 0
180 -35 -181 0
-115 113 -182 0
115 -113 -182 0
-115 -113 182 0
115 113 182 0
-183 181 0
-183 182 0
-181 -182 183 0
184 179 0
184 -183 0
-179 183 -184 0
185 -177 0
185 184 0
177 -184 -185 0
-186 56 0
-186 -71 0
-56 71 186 0
-187 186 0
-187 12 0
-186 -12 187 0
188 -187 0
188 -79 0
187 79 -188 0
189 128 0
189 -112 0
-128 112 -189 0
190 -34 0
190 -189 0
34 189 -190 0
-191 -190 0
-191 -93 0
190 93 191 0
192 -188 0
192 -191 0
188 191 -192 0
21 8 -193 0
-21 -8 -193 0
21 -8 193 0
-21 8 193 0
-194 -83 0
-194 -193 0
83 193 194 0
195 192 0
195 194 0
-192 -194 -195 0
-185 -195 -196 0
185 195 -196 0
-185 195 196 0
185 -195 196 0
197 163 0
197 99 0
-163 -99 -197 0
-198 -109 0
-198 55 0
109 -55 198 0
-199 -115 0
-199 -103 0
115 103 199 0
-200 -198 0
-200 199 0
198 -199 200 0
18 -187 -201 0
-18 187 -201 0
18 187 201 0
-18 -187 201 0
-202 -28 0
-202 -129 0
28 129 202 0
203 -202 0
203 69 0
202 -69 -203 0
-204 -23 0
-204 203 0
23 -203 204 0
201 204 -205 0
-201 -204 -205 0
201 -204 205 0
-201 204 205 0
206 -71 0
206 64 0
71 -64 -206 0
-207 -64 0
-207 100 0
64 -100 207 0
-207 128 -208 0
207 -128 -208 0
-207 -128 208 0
207 128 208 0
-209 -206 0
-209 -208 0
206 208 209 0
-86 20 -210 0
86 -20 -210 0
-86 -20 210 0
86 20 210 0
209 210 -211 0
-209 -210 -211 0
209 -210 211 0
-209 210 211 0
-212 -205 0
-212 -211 0
205 211 212 0
200 212 -213 0
-200 -212 -213 0
200 -212 213 0
-200 212 213 0
-214 -18 0
-214 11 0
18 -11 214 0
-214 29 -215 0
214 -29 -215 0
-214 -29 215 0
214 29 215 0
-216 66 0
-216 106 0
-66 -106 216 0
215 -216 -217 0
-215 216 -217 0
215 216 217 0
-215 -216 217 0
218 -213 0
218 217 0
213 -217 -218 0
-197 -218 -219 0
197 218 -219 0
-197 218 219 0
197 -218 219 0
220 196 0
220 219 0
-196 -219 -220 0
162 220 -221 0
-162 -220 -221 0
162 -220 221 0
-162 220 221 0
221 0
